c RoundingSat 2
c branch HEAD
c commit c548e10
c #variables 32 #constraints 273
c #Conflicts:       1000 | #Constraints:       1272
c #Conflicts:       2000 | #Constraints:       2272
c INPROCESSING
c GARBAGE COLLECT
c #Conflicts:       3000 | #Constraints:       2279
c cpu time 0.044297 s
c deterministic time 4639128 4.64e+06
c optimization time 1e-05 s
c total solve time 0.044291 s
c core-guided solve time 0 s
c propagation time 0.027043 s
c conflict analysis time 0.013296 s
c propagations 43562
c resolve steps 14417
c decisions 4556
c conflicts 3595
c restarts 18
c inprocessing phases 1
c input clauses 272
c input cardinalities 1
c input general constraints 0
c input average constraint length 8.15
c input average constraint degree 1.08
c learned clauses 2503
c learned cardinalities 345
c learned general constraints 746
c learned average constraint length 10.40
c learned average constraint degree 3.18
c watched constraints 285
c counting constraints 461
c gcd simplifications 85
c detected cardinalities 85
c weakened non-implied lits 19619
c weakened non-implying lits 37
c original variables 32
c clausal propagations 9484
c cardinality propagations 16851
c watched propagations 1040
c counting propagations 11087
c watch lookups 1628139
c watch backjump lookups 896905
c watch checks 1564362
c propagation checks 260270
c constraint additions 189640
c trail pops 51693
c formula constraints 273
c learned constraints 3594
c bound constraints 0
c core-guided constraints 0
c encountered formula constraints 6244
c encountered learned constraints 11768
c encountered bound constraints 0
c encountered core-guided constraints 0
c LP total time 0 s
c LP solve time 0 s
c LP constraints added 0
c LP constraints removed 0
c LP pivots internal 0
c LP pivots root 0
c LP calls 0
c LP optimalities 0
c LP no pivot count 0
c LP infeasibilities 0
c LP valid Farkas constraints 0
c LP learned Farkas constraints 0
c LP basis resets 0
c LP cycling count 0
c LP singular count 0
c LP no primal count 0
c LP no farkas count 0
c LP other issue count 0
c LP Gomory cuts 0
c LP learned cuts 0
c LP deleted cuts 0
c LP encountered Gomory constraints 0
c LP encountered Farkas constraints 0
c LP encountered learned Farkas constraints 0
c CG auxiliary variables introduced 0
c CG solutions found 0
c CG cores constructed 0
c CG core cardinality constraints returned 0
c CG unit cores 0
c CG single cores 0
c CG blocks removed during cardinality reduction 0
c CG first core best 0
c CG decision core best 0
c CG core reduction tie 0
c CG core degree average 0.00
c CG core slack average 0.00
s UNSATISFIABLE
